p cnf 129 1495
1 2 3 0
4 5 6 0
7 8 9 0
10 11 12 0
13 14 15 0
16 17 18 0
19 20 21 0
22 23 24 0
25 26 27 0
28 29 30 0
31 32 33 0
34 35 36 0
37 38 39 0
40 41 42 0
43 44 45 0
46 47 48 0
49 50 51 0
52 53 54 0
55 56 57 0
58 59 60 0
61 62 63 0
64 65 66 0
67 68 69 0
70 71 72 0
73 74 75 0
76 77 78 0
79 80 81 0
82 83 84 0
85 86 87 0
88 89 90 0
91 92 93 0
94 95 96 0
97 98 99 0
100 101 102 0
103 104 105 0
106 107 108 0
109 110 111 0
112 113 114 0
115 116 117 0
118 119 120 0
121 122 123 0
124 125 126 0
127 128 129 0
-1 -2 0
-1 -3 0
-2 -3 0
-4 -5 0
-4 -6 0
-5 -6 0
-7 -8 0
-7 -9 0
-8 -9 0
-10 -11 0
-10 -12 0
-11 -12 0
-13 -14 0
-13 -15 0
-14 -15 0
-16 -17 0
-16 -18 0
-17 -18 0
-19 -20 0
-19 -21 0
-20 -21 0
-22 -23 0
-22 -24 0
-23 -24 0
-25 -26 0
-25 -27 0
-26 -27 0
-28 -29 0
-28 -30 0
-29 -30 0
-31 -32 0
-31 -33 0
-32 -33 0
-34 -35 0
-34 -36 0
-35 -36 0
-37 -38 0
-37 -39 0
-38 -39 0
-40 -41 0
-40 -42 0
-41 -42 0
-43 -44 0
-43 -45 0
-44 -45 0
-46 -47 0
-46 -48 0
-47 -48 0
-49 -50 0
-49 -51 0
-50 -51 0
-52 -53 0
-52 -54 0
-53 -54 0
-55 -56 0
-55 -57 0
-56 -57 0
-58 -59 0
-58 -60 0
-59 -60 0
-61 -62 0
-61 -63 0
-62 -63 0
-64 -65 0
-64 -66 0
-65 -66 0
-67 -68 0
-67 -69 0
-68 -69 0
-70 -71 0
-70 -72 0
-71 -72 0
-73 -74 0
-73 -75 0
-74 -75 0
-76 -77 0
-76 -78 0
-77 -78 0
-79 -80 0
-79 -81 0
-80 -81 0
-82 -83 0
-82 -84 0
-83 -84 0
-85 -86 0
-85 -87 0
-86 -87 0
-88 -89 0
-88 -90 0
-89 -90 0
-91 -92 0
-91 -93 0
-92 -93 0
-94 -95 0
-94 -96 0
-95 -96 0
-97 -98 0
-97 -99 0
-98 -99 0
-100 -101 0
-100 -102 0
-101 -102 0
-103 -104 0
-103 -105 0
-104 -105 0
-106 -107 0
-106 -108 0
-107 -108 0
-109 -110 0
-109 -111 0
-110 -111 0
-112 -113 0
-112 -114 0
-113 -114 0
-115 -116 0
-115 -117 0
-116 -117 0
-118 -119 0
-118 -120 0
-119 -120 0
-121 -122 0
-121 -123 0
-122 -123 0
-124 -125 0
-124 -126 0
-125 -126 0
-127 -128 0
-127 -129 0
-128 -129 0
-1 -1 -7 0
-2 -2 -8 0
-3 -3 -9 0
-1 -4 -10 0
-2 -5 -11 0
-3 -6 -12 0
-1 -7 -13 0
-2 -8 -14 0
-3 -9 -15 0
-1 -10 -16 0
-2 -11 -17 0
-3 -12 -18 0
-1 -13 -19 0
-2 -14 -20 0
-3 -15 -21 0
-1 -16 -22 0
-2 -17 -23 0
-3 -18 -24 0
-1 -19 -25 0
-2 -20 -26 0
-3 -21 -27 0
-1 -22 -28 0
-2 -23 -29 0
-3 -24 -30 0
-1 -25 -31 0
-2 -26 -32 0
-3 -27 -33 0
-1 -28 -34 0
-2 -29 -35 0
-3 -30 -36 0
-1 -31 -37 0
-2 -32 -38 0
-3 -33 -39 0
-1 -34 -40 0
-2 -35 -41 0
-3 -36 -42 0
-1 -37 -43 0
-2 -38 -44 0
-3 -39 -45 0
-1 -40 -46 0
-2 -41 -47 0
-3 -42 -48 0
-1 -43 -49 0
-2 -44 -50 0
-3 -45 -51 0
-1 -46 -52 0
-2 -47 -53 0
-3 -48 -54 0
-1 -49 -55 0
-2 -50 -56 0
-3 -51 -57 0
-1 -52 -58 0
-2 -53 -59 0
-3 -54 -60 0
-1 -55 -61 0
-2 -56 -62 0
-3 -57 -63 0
-1 -58 -64 0
-2 -59 -65 0
-3 -60 -66 0
-1 -61 -67 0
-2 -62 -68 0
-3 -63 -69 0
-1 -64 -70 0
-2 -65 -71 0
-3 -66 -72 0
-1 -67 -73 0
-2 -68 -74 0
-3 -69 -75 0
-1 -70 -76 0
-2 -71 -77 0
-3 -72 -78 0
-1 -73 -79 0
-2 -74 -80 0
-3 -75 -81 0
-1 -76 -82 0
-2 -77 -83 0
-3 -78 -84 0
-1 -79 -85 0
-2 -80 -86 0
-3 -81 -87 0
-1 -82 -88 0
-2 -83 -89 0
-3 -84 -90 0
-1 -85 -91 0
-2 -86 -92 0
-3 -87 -93 0
-1 -88 -94 0
-2 -89 -95 0
-3 -90 -96 0
-1 -91 -97 0
-2 -92 -98 0
-3 -93 -99 0
-1 -94 -100 0
-2 -95 -101 0
-3 -96 -102 0
-1 -97 -103 0
-2 -98 -104 0
-3 -99 -105 0
-1 -100 -106 0
-2 -101 -107 0
-3 -102 -108 0
-1 -103 -109 0
-2 -104 -110 0
-3 -105 -111 0
-1 -106 -112 0
-2 -107 -113 0
-3 -108 -114 0
-1 -109 -115 0
-2 -110 -116 0
-3 -111 -117 0
-1 -112 -118 0
-2 -113 -119 0
-3 -114 -120 0
-1 -115 -121 0
-2 -116 -122 0
-3 -117 -123 0
-1 -118 -124 0
-2 -119 -125 0
-3 -120 -126 0
-1 -121 -127 0
-2 -122 -128 0
-3 -123 -129 0
-4 -1 -13 0
-5 -2 -14 0
-6 -3 -15 0
-4 -4 -16 0
-5 -5 -17 0
-6 -6 -18 0
-4 -7 -19 0
-5 -8 -20 0
-6 -9 -21 0
-4 -10 -22 0
-5 -11 -23 0
-6 -12 -24 0
-4 -13 -25 0
-5 -14 -26 0
-6 -15 -27 0
-4 -16 -28 0
-5 -17 -29 0
-6 -18 -30 0
-4 -19 -31 0
-5 -20 -32 0
-6 -21 -33 0
-4 -22 -34 0
-5 -23 -35 0
-6 -24 -36 0
-4 -25 -37 0
-5 -26 -38 0
-6 -27 -39 0
-4 -28 -40 0
-5 -29 -41 0
-6 -30 -42 0
-4 -31 -43 0
-5 -32 -44 0
-6 -33 -45 0
-4 -34 -46 0
-5 -35 -47 0
-6 -36 -48 0
-4 -37 -49 0
-5 -38 -50 0
-6 -39 -51 0
-4 -40 -52 0
-5 -41 -53 0
-6 -42 -54 0
-4 -43 -55 0
-5 -44 -56 0
-6 -45 -57 0
-4 -46 -58 0
-5 -47 -59 0
-6 -48 -60 0
-4 -49 -61 0
-5 -50 -62 0
-6 -51 -63 0
-4 -52 -64 0
-5 -53 -65 0
-6 -54 -66 0
-4 -55 -67 0
-5 -56 -68 0
-6 -57 -69 0
-4 -58 -70 0
-5 -59 -71 0
-6 -60 -72 0
-4 -61 -73 0
-5 -62 -74 0
-6 -63 -75 0
-4 -64 -76 0
-5 -65 -77 0
-6 -66 -78 0
-4 -67 -79 0
-5 -68 -80 0
-6 -69 -81 0
-4 -70 -82 0
-5 -71 -83 0
-6 -72 -84 0
-4 -73 -85 0
-5 -74 -86 0
-6 -75 -87 0
-4 -76 -88 0
-5 -77 -89 0
-6 -78 -90 0
-4 -79 -91 0
-5 -80 -92 0
-6 -81 -93 0
-4 -82 -94 0
-5 -83 -95 0
-6 -84 -96 0
-4 -85 -97 0
-5 -86 -98 0
-6 -87 -99 0
-4 -88 -100 0
-5 -89 -101 0
-6 -90 -102 0
-4 -91 -103 0
-5 -92 -104 0
-6 -93 -105 0
-4 -94 -106 0
-5 -95 -107 0
-6 -96 -108 0
-4 -97 -109 0
-5 -98 -110 0
-6 -99 -111 0
-4 -100 -112 0
-5 -101 -113 0
-6 -102 -114 0
-4 -103 -115 0
-5 -104 -116 0
-6 -105 -117 0
-4 -106 -118 0
-5 -107 -119 0
-6 -108 -120 0
-4 -109 -121 0
-5 -110 -122 0
-6 -111 -123 0
-4 -112 -124 0
-5 -113 -125 0
-6 -114 -126 0
-4 -115 -127 0
-5 -116 -128 0
-6 -117 -129 0
-7 -1 -19 0
-8 -2 -20 0
-9 -3 -21 0
-7 -4 -22 0
-8 -5 -23 0
-9 -6 -24 0
-7 -7 -25 0
-8 -8 -26 0
-9 -9 -27 0
-7 -10 -28 0
-8 -11 -29 0
-9 -12 -30 0
-7 -13 -31 0
-8 -14 -32 0
-9 -15 -33 0
-7 -16 -34 0
-8 -17 -35 0
-9 -18 -36 0
-7 -19 -37 0
-8 -20 -38 0
-9 -21 -39 0
-7 -22 -40 0
-8 -23 -41 0
-9 -24 -42 0
-7 -25 -43 0
-8 -26 -44 0
-9 -27 -45 0
-7 -28 -46 0
-8 -29 -47 0
-9 -30 -48 0
-7 -31 -49 0
-8 -32 -50 0
-9 -33 -51 0
-7 -34 -52 0
-8 -35 -53 0
-9 -36 -54 0
-7 -37 -55 0
-8 -38 -56 0
-9 -39 -57 0
-7 -40 -58 0
-8 -41 -59 0
-9 -42 -60 0
-7 -43 -61 0
-8 -44 -62 0
-9 -45 -63 0
-7 -46 -64 0
-8 -47 -65 0
-9 -48 -66 0
-7 -49 -67 0
-8 -50 -68 0
-9 -51 -69 0
-7 -52 -70 0
-8 -53 -71 0
-9 -54 -72 0
-7 -55 -73 0
-8 -56 -74 0
-9 -57 -75 0
-7 -58 -76 0
-8 -59 -77 0
-9 -60 -78 0
-7 -61 -79 0
-8 -62 -80 0
-9 -63 -81 0
-7 -64 -82 0
-8 -65 -83 0
-9 -66 -84 0
-7 -67 -85 0
-8 -68 -86 0
-9 -69 -87 0
-7 -70 -88 0
-8 -71 -89 0
-9 -72 -90 0
-7 -73 -91 0
-8 -74 -92 0
-9 -75 -93 0
-7 -76 -94 0
-8 -77 -95 0
-9 -78 -96 0
-7 -79 -97 0
-8 -80 -98 0
-9 -81 -99 0
-7 -82 -100 0
-8 -83 -101 0
-9 -84 -102 0
-7 -85 -103 0
-8 -86 -104 0
-9 -87 -105 0
-7 -88 -106 0
-8 -89 -107 0
-9 -90 -108 0
-7 -91 -109 0
-8 -92 -110 0
-9 -93 -111 0
-7 -94 -112 0
-8 -95 -113 0
-9 -96 -114 0
-7 -97 -115 0
-8 -98 -116 0
-9 -99 -117 0
-7 -100 -118 0
-8 -101 -119 0
-9 -102 -120 0
-7 -103 -121 0
-8 -104 -122 0
-9 -105 -123 0
-7 -106 -124 0
-8 -107 -125 0
-9 -108 -126 0
-7 -109 -127 0
-8 -110 -128 0
-9 -111 -129 0
-10 -1 -25 0
-11 -2 -26 0
-12 -3 -27 0
-10 -4 -28 0
-11 -5 -29 0
-12 -6 -30 0
-10 -7 -31 0
-11 -8 -32 0
-12 -9 -33 0
-10 -10 -34 0
-11 -11 -35 0
-12 -12 -36 0
-10 -13 -37 0
-11 -14 -38 0
-12 -15 -39 0
-10 -16 -40 0
-11 -17 -41 0
-12 -18 -42 0
-10 -19 -43 0
-11 -20 -44 0
-12 -21 -45 0
-10 -22 -46 0
-11 -23 -47 0
-12 -24 -48 0
-10 -25 -49 0
-11 -26 -50 0
-12 -27 -51 0
-10 -28 -52 0
-11 -29 -53 0
-12 -30 -54 0
-10 -31 -55 0
-11 -32 -56 0
-12 -33 -57 0
-10 -34 -58 0
-11 -35 -59 0
-12 -36 -60 0
-10 -37 -61 0
-11 -38 -62 0
-12 -39 -63 0
-10 -40 -64 0
-11 -41 -65 0
-12 -42 -66 0
-10 -43 -67 0
-11 -44 -68 0
-12 -45 -69 0
-10 -46 -70 0
-11 -47 -71 0
-12 -48 -72 0
-10 -49 -73 0
-11 -50 -74 0
-12 -51 -75 0
-10 -52 -76 0
-11 -53 -77 0
-12 -54 -78 0
-10 -55 -79 0
-11 -56 -80 0
-12 -57 -81 0
-10 -58 -82 0
-11 -59 -83 0
-12 -60 -84 0
-10 -61 -85 0
-11 -62 -86 0
-12 -63 -87 0
-10 -64 -88 0
-11 -65 -89 0
-12 -66 -90 0
-10 -67 -91 0
-11 -68 -92 0
-12 -69 -93 0
-10 -70 -94 0
-11 -71 -95 0
-12 -72 -96 0
-10 -73 -97 0
-11 -74 -98 0
-12 -75 -99 0
-10 -76 -100 0
-11 -77 -101 0
-12 -78 -102 0
-10 -79 -103 0
-11 -80 -104 0
-12 -81 -105 0
-10 -82 -106 0
-11 -83 -107 0
-12 -84 -108 0
-10 -85 -109 0
-11 -86 -110 0
-12 -87 -111 0
-10 -88 -112 0
-11 -89 -113 0
-12 -90 -114 0
-10 -91 -115 0
-11 -92 -116 0
-12 -93 -117 0
-10 -94 -118 0
-11 -95 -119 0
-12 -96 -120 0
-10 -97 -121 0
-11 -98 -122 0
-12 -99 -123 0
-10 -100 -124 0
-11 -101 -125 0
-12 -102 -126 0
-10 -103 -127 0
-11 -104 -128 0
-12 -105 -129 0
-13 -1 -31 0
-14 -2 -32 0
-15 -3 -33 0
-13 -4 -34 0
-14 -5 -35 0
-15 -6 -36 0
-13 -7 -37 0
-14 -8 -38 0
-15 -9 -39 0
-13 -10 -40 0
-14 -11 -41 0
-15 -12 -42 0
-13 -13 -43 0
-14 -14 -44 0
-15 -15 -45 0
-13 -16 -46 0
-14 -17 -47 0
-15 -18 -48 0
-13 -19 -49 0
-14 -20 -50 0
-15 -21 -51 0
-13 -22 -52 0
-14 -23 -53 0
-15 -24 -54 0
-13 -25 -55 0
-14 -26 -56 0
-15 -27 -57 0
-13 -28 -58 0
-14 -29 -59 0
-15 -30 -60 0
-13 -31 -61 0
-14 -32 -62 0
-15 -33 -63 0
-13 -34 -64 0
-14 -35 -65 0
-15 -36 -66 0
-13 -37 -67 0
-14 -38 -68 0
-15 -39 -69 0
-13 -40 -70 0
-14 -41 -71 0
-15 -42 -72 0
-13 -43 -73 0
-14 -44 -74 0
-15 -45 -75 0
-13 -46 -76 0
-14 -47 -77 0
-15 -48 -78 0
-13 -49 -79 0
-14 -50 -80 0
-15 -51 -81 0
-13 -52 -82 0
-14 -53 -83 0
-15 -54 -84 0
-13 -55 -85 0
-14 -56 -86 0
-15 -57 -87 0
-13 -58 -88 0
-14 -59 -89 0
-15 -60 -90 0
-13 -61 -91 0
-14 -62 -92 0
-15 -63 -93 0
-13 -64 -94 0
-14 -65 -95 0
-15 -66 -96 0
-13 -67 -97 0
-14 -68 -98 0
-15 -69 -99 0
-13 -70 -100 0
-14 -71 -101 0
-15 -72 -102 0
-13 -73 -103 0
-14 -74 -104 0
-15 -75 -105 0
-13 -76 -106 0
-14 -77 -107 0
-15 -78 -108 0
-13 -79 -109 0
-14 -80 -110 0
-15 -81 -111 0
-13 -82 -112 0
-14 -83 -113 0
-15 -84 -114 0
-13 -85 -115 0
-14 -86 -116 0
-15 -87 -117 0
-13 -88 -118 0
-14 -89 -119 0
-15 -90 -120 0
-13 -91 -121 0
-14 -92 -122 0
-15 -93 -123 0
-13 -94 -124 0
-14 -95 -125 0
-15 -96 -126 0
-13 -97 -127 0
-14 -98 -128 0
-15 -99 -129 0
-16 -1 -37 0
-17 -2 -38 0
-18 -3 -39 0
-16 -4 -40 0
-17 -5 -41 0
-18 -6 -42 0
-16 -7 -43 0
-17 -8 -44 0
-18 -9 -45 0
-16 -10 -46 0
-17 -11 -47 0
-18 -12 -48 0
-16 -13 -49 0
-17 -14 -50 0
-18 -15 -51 0
-16 -16 -52 0
-17 -17 -53 0
-18 -18 -54 0
-16 -19 -55 0
-17 -20 -56 0
-18 -21 -57 0
-16 -22 -58 0
-17 -23 -59 0
-18 -24 -60 0
-16 -25 -61 0
-17 -26 -62 0
-18 -27 -63 0
-16 -28 -64 0
-17 -29 -65 0
-18 -30 -66 0
-16 -31 -67 0
-17 -32 -68 0
-18 -33 -69 0
-16 -34 -70 0
-17 -35 -71 0
-18 -36 -72 0
-16 -37 -73 0
-17 -38 -74 0
-18 -39 -75 0
-16 -40 -76 0
-17 -41 -77 0
-18 -42 -78 0
-16 -43 -79 0
-17 -44 -80 0
-18 -45 -81 0
-16 -46 -82 0
-17 -47 -83 0
-18 -48 -84 0
-16 -49 -85 0
-17 -50 -86 0
-18 -51 -87 0
-16 -52 -88 0
-17 -53 -89 0
-18 -54 -90 0
-16 -55 -91 0
-17 -56 -92 0
-18 -57 -93 0
-16 -58 -94 0
-17 -59 -95 0
-18 -60 -96 0
-16 -61 -97 0
-17 -62 -98 0
-18 -63 -99 0
-16 -64 -100 0
-17 -65 -101 0
-18 -66 -102 0
-16 -67 -103 0
-17 -68 -104 0
-18 -69 -105 0
-16 -70 -106 0
-17 -71 -107 0
-18 -72 -108 0
-16 -73 -109 0
-17 -74 -110 0
-18 -75 -111 0
-16 -76 -112 0
-17 -77 -113 0
-18 -78 -114 0
-16 -79 -115 0
-17 -80 -116 0
-18 -81 -117 0
-16 -82 -118 0
-17 -83 -119 0
-18 -84 -120 0
-16 -85 -121 0
-17 -86 -122 0
-18 -87 -123 0
-16 -88 -124 0
-17 -89 -125 0
-18 -90 -126 0
-16 -91 -127 0
-17 -92 -128 0
-18 -93 -129 0
-19 -1 -43 0
-20 -2 -44 0
-21 -3 -45 0
-19 -4 -46 0
-20 -5 -47 0
-21 -6 -48 0
-19 -7 -49 0
-20 -8 -50 0
-21 -9 -51 0
-19 -10 -52 0
-20 -11 -53 0
-21 -12 -54 0
-19 -13 -55 0
-20 -14 -56 0
-21 -15 -57 0
-19 -16 -58 0
-20 -17 -59 0
-21 -18 -60 0
-19 -19 -61 0
-20 -20 -62 0
-21 -21 -63 0
-19 -22 -64 0
-20 -23 -65 0
-21 -24 -66 0
-19 -25 -67 0
-20 -26 -68 0
-21 -27 -69 0
-19 -28 -70 0
-20 -29 -71 0
-21 -30 -72 0
-19 -31 -73 0
-20 -32 -74 0
-21 -33 -75 0
-19 -34 -76 0
-20 -35 -77 0
-21 -36 -78 0
-19 -37 -79 0
-20 -38 -80 0
-21 -39 -81 0
-19 -40 -82 0
-20 -41 -83 0
-21 -42 -84 0
-19 -43 -85 0
-20 -44 -86 0
-21 -45 -87 0
-19 -46 -88 0
-20 -47 -89 0
-21 -48 -90 0
-19 -49 -91 0
-20 -50 -92 0
-21 -51 -93 0
-19 -52 -94 0
-20 -53 -95 0
-21 -54 -96 0
-19 -55 -97 0
-20 -56 -98 0
-21 -57 -99 0
-19 -58 -100 0
-20 -59 -101 0
-21 -60 -102 0
-19 -61 -103 0
-20 -62 -104 0
-21 -63 -105 0
-19 -64 -106 0
-20 -65 -107 0
-21 -66 -108 0
-19 -67 -109 0
-20 -68 -110 0
-21 -69 -111 0
-19 -70 -112 0
-20 -71 -113 0
-21 -72 -114 0
-19 -73 -115 0
-20 -74 -116 0
-21 -75 -117 0
-19 -76 -118 0
-20 -77 -119 0
-21 -78 -120 0
-19 -79 -121 0
-20 -80 -122 0
-21 -81 -123 0
-19 -82 -124 0
-20 -83 -125 0
-21 -84 -126 0
-19 -85 -127 0
-20 -86 -128 0
-21 -87 -129 0
-22 -1 -49 0
-23 -2 -50 0
-24 -3 -51 0
-22 -4 -52 0
-23 -5 -53 0
-24 -6 -54 0
-22 -7 -55 0
-23 -8 -56 0
-24 -9 -57 0
-22 -10 -58 0
-23 -11 -59 0
-24 -12 -60 0
-22 -13 -61 0
-23 -14 -62 0
-24 -15 -63 0
-22 -16 -64 0
-23 -17 -65 0
-24 -18 -66 0
-22 -19 -67 0
-23 -20 -68 0
-24 -21 -69 0
-22 -22 -70 0
-23 -23 -71 0
-24 -24 -72 0
-22 -25 -73 0
-23 -26 -74 0
-24 -27 -75 0
-22 -28 -76 0
-23 -29 -77 0
-24 -30 -78 0
-22 -31 -79 0
-23 -32 -80 0
-24 -33 -81 0
-22 -34 -82 0
-23 -35 -83 0
-24 -36 -84 0
-22 -37 -85 0
-23 -38 -86 0
-24 -39 -87 0
-22 -40 -88 0
-23 -41 -89 0
-24 -42 -90 0
-22 -43 -91 0
-23 -44 -92 0
-24 -45 -93 0
-22 -46 -94 0
-23 -47 -95 0
-24 -48 -96 0
-22 -49 -97 0
-23 -50 -98 0
-24 -51 -99 0
-22 -52 -100 0
-23 -53 -101 0
-24 -54 -102 0
-22 -55 -103 0
-23 -56 -104 0
-24 -57 -105 0
-22 -58 -106 0
-23 -59 -107 0
-24 -60 -108 0
-22 -61 -109 0
-23 -62 -110 0
-24 -63 -111 0
-22 -64 -112 0
-23 -65 -113 0
-24 -66 -114 0
-22 -67 -115 0
-23 -68 -116 0
-24 -69 -117 0
-22 -70 -118 0
-23 -71 -119 0
-24 -72 -120 0
-22 -73 -121 0
-23 -74 -122 0
-24 -75 -123 0
-22 -76 -124 0
-23 -77 -125 0
-24 -78 -126 0
-22 -79 -127 0
-23 -80 -128 0
-24 -81 -129 0
-25 -1 -55 0
-26 -2 -56 0
-27 -3 -57 0
-25 -4 -58 0
-26 -5 -59 0
-27 -6 -60 0
-25 -7 -61 0
-26 -8 -62 0
-27 -9 -63 0
-25 -10 -64 0
-26 -11 -65 0
-27 -12 -66 0
-25 -13 -67 0
-26 -14 -68 0
-27 -15 -69 0
-25 -16 -70 0
-26 -17 -71 0
-27 -18 -72 0
-25 -19 -73 0
-26 -20 -74 0
-27 -21 -75 0
-25 -22 -76 0
-26 -23 -77 0
-27 -24 -78 0
-25 -25 -79 0
-26 -26 -80 0
-27 -27 -81 0
-25 -28 -82 0
-26 -29 -83 0
-27 -30 -84 0
-25 -31 -85 0
-26 -32 -86 0
-27 -33 -87 0
-25 -34 -88 0
-26 -35 -89 0
-27 -36 -90 0
-25 -37 -91 0
-26 -38 -92 0
-27 -39 -93 0
-25 -40 -94 0
-26 -41 -95 0
-27 -42 -96 0
-25 -43 -97 0
-26 -44 -98 0
-27 -45 -99 0
-25 -46 -100 0
-26 -47 -101 0
-27 -48 -102 0
-25 -49 -103 0
-26 -50 -104 0
-27 -51 -105 0
-25 -52 -106 0
-26 -53 -107 0
-27 -54 -108 0
-25 -55 -109 0
-26 -56 -110 0
-27 -57 -111 0
-25 -58 -112 0
-26 -59 -113 0
-27 -60 -114 0
-25 -61 -115 0
-26 -62 -116 0
-27 -63 -117 0
-25 -64 -118 0
-26 -65 -119 0
-27 -66 -120 0
-25 -67 -121 0
-26 -68 -122 0
-27 -69 -123 0
-25 -70 -124 0
-26 -71 -125 0
-27 -72 -126 0
-25 -73 -127 0
-26 -74 -128 0
-27 -75 -129 0
-28 -1 -61 0
-29 -2 -62 0
-30 -3 -63 0
-28 -4 -64 0
-29 -5 -65 0
-30 -6 -66 0
-28 -7 -67 0
-29 -8 -68 0
-30 -9 -69 0
-28 -10 -70 0
-29 -11 -71 0
-30 -12 -72 0
-28 -13 -73 0
-29 -14 -74 0
-30 -15 -75 0
-28 -16 -76 0
-29 -17 -77 0
-30 -18 -78 0
-28 -19 -79 0
-29 -20 -80 0
-30 -21 -81 0
-28 -22 -82 0
-29 -23 -83 0
-30 -24 -84 0
-28 -25 -85 0
-29 -26 -86 0
-30 -27 -87 0
-28 -28 -88 0
-29 -29 -89 0
-30 -30 -90 0
-28 -31 -91 0
-29 -32 -92 0
-30 -33 -93 0
-28 -34 -94 0
-29 -35 -95 0
-30 -36 -96 0
-28 -37 -97 0
-29 -38 -98 0
-30 -39 -99 0
-28 -40 -100 0
-29 -41 -101 0
-30 -42 -102 0
-28 -43 -103 0
-29 -44 -104 0
-30 -45 -105 0
-28 -46 -106 0
-29 -47 -107 0
-30 -48 -108 0
-28 -49 -109 0
-29 -50 -110 0
-30 -51 -111 0
-28 -52 -112 0
-29 -53 -113 0
-30 -54 -114 0
-28 -55 -115 0
-29 -56 -116 0
-30 -57 -117 0
-28 -58 -118 0
-29 -59 -119 0
-30 -60 -120 0
-28 -61 -121 0
-29 -62 -122 0
-30 -63 -123 0
-28 -64 -124 0
-29 -65 -125 0
-30 -66 -126 0
-28 -67 -127 0
-29 -68 -128 0
-30 -69 -129 0
-31 -1 -67 0
-32 -2 -68 0
-33 -3 -69 0
-31 -4 -70 0
-32 -5 -71 0
-33 -6 -72 0
-31 -7 -73 0
-32 -8 -74 0
-33 -9 -75 0
-31 -10 -76 0
-32 -11 -77 0
-33 -12 -78 0
-31 -13 -79 0
-32 -14 -80 0
-33 -15 -81 0
-31 -16 -82 0
-32 -17 -83 0
-33 -18 -84 0
-31 -19 -85 0
-32 -20 -86 0
-33 -21 -87 0
-31 -22 -88 0
-32 -23 -89 0
-33 -24 -90 0
-31 -25 -91 0
-32 -26 -92 0
-33 -27 -93 0
-31 -28 -94 0
-32 -29 -95 0
-33 -30 -96 0
-31 -31 -97 0
-32 -32 -98 0
-33 -33 -99 0
-31 -34 -100 0
-32 -35 -101 0
-33 -36 -102 0
-31 -37 -103 0
-32 -38 -104 0
-33 -39 -105 0
-31 -40 -106 0
-32 -41 -107 0
-33 -42 -108 0
-31 -43 -109 0
-32 -44 -110 0
-33 -45 -111 0
-31 -46 -112 0
-32 -47 -113 0
-33 -48 -114 0
-31 -49 -115 0
-32 -50 -116 0
-33 -51 -117 0
-31 -52 -118 0
-32 -53 -119 0
-33 -54 -120 0
-31 -55 -121 0
-32 -56 -122 0
-33 -57 -123 0
-31 -58 -124 0
-32 -59 -125 0
-33 -60 -126 0
-31 -61 -127 0
-32 -62 -128 0
-33 -63 -129 0
-34 -1 -73 0
-35 -2 -74 0
-36 -3 -75 0
-34 -4 -76 0
-35 -5 -77 0
-36 -6 -78 0
-34 -7 -79 0
-35 -8 -80 0
-36 -9 -81 0
-34 -10 -82 0
-35 -11 -83 0
-36 -12 -84 0
-34 -13 -85 0
-35 -14 -86 0
-36 -15 -87 0
-34 -16 -88 0
-35 -17 -89 0
-36 -18 -90 0
-34 -19 -91 0
-35 -20 -92 0
-36 -21 -93 0
-34 -22 -94 0
-35 -23 -95 0
-36 -24 -96 0
-34 -25 -97 0
-35 -26 -98 0
-36 -27 -99 0
-34 -28 -100 0
-35 -29 -101 0
-36 -30 -102 0
-34 -31 -103 0
-35 -32 -104 0
-36 -33 -105 0
-34 -34 -106 0
-35 -35 -107 0
-36 -36 -108 0
-34 -37 -109 0
-35 -38 -110 0
-36 -39 -111 0
-34 -40 -112 0
-35 -41 -113 0
-36 -42 -114 0
-34 -43 -115 0
-35 -44 -116 0
-36 -45 -117 0
-34 -46 -118 0
-35 -47 -119 0
-36 -48 -120 0
-34 -49 -121 0
-35 -50 -122 0
-36 -51 -123 0
-34 -52 -124 0
-35 -53 -125 0
-36 -54 -126 0
-34 -55 -127 0
-35 -56 -128 0
-36 -57 -129 0
-37 -1 -79 0
-38 -2 -80 0
-39 -3 -81 0
-37 -4 -82 0
-38 -5 -83 0
-39 -6 -84 0
-37 -7 -85 0
-38 -8 -86 0
-39 -9 -87 0
-37 -10 -88 0
-38 -11 -89 0
-39 -12 -90 0
-37 -13 -91 0
-38 -14 -92 0
-39 -15 -93 0
-37 -16 -94 0
-38 -17 -95 0
-39 -18 -96 0
-37 -19 -97 0
-38 -20 -98 0
-39 -21 -99 0
-37 -22 -100 0
-38 -23 -101 0
-39 -24 -102 0
-37 -25 -103 0
-38 -26 -104 0
-39 -27 -105 0
-37 -28 -106 0
-38 -29 -107 0
-39 -30 -108 0
-37 -31 -109 0
-38 -32 -110 0
-39 -33 -111 0
-37 -34 -112 0
-38 -35 -113 0
-39 -36 -114 0
-37 -37 -115 0
-38 -38 -116 0
-39 -39 -117 0
-37 -40 -118 0
-38 -41 -119 0
-39 -42 -120 0
-37 -43 -121 0
-38 -44 -122 0
-39 -45 -123 0
-37 -46 -124 0
-38 -47 -125 0
-39 -48 -126 0
-37 -49 -127 0
-38 -50 -128 0
-39 -51 -129 0
-40 -1 -85 0
-41 -2 -86 0
-42 -3 -87 0
-40 -4 -88 0
-41 -5 -89 0
-42 -6 -90 0
-40 -7 -91 0
-41 -8 -92 0
-42 -9 -93 0
-40 -10 -94 0
-41 -11 -95 0
-42 -12 -96 0
-40 -13 -97 0
-41 -14 -98 0
-42 -15 -99 0
-40 -16 -100 0
-41 -17 -101 0
-42 -18 -102 0
-40 -19 -103 0
-41 -20 -104 0
-42 -21 -105 0
-40 -22 -106 0
-41 -23 -107 0
-42 -24 -108 0
-40 -25 -109 0
-41 -26 -110 0
-42 -27 -111 0
-40 -28 -112 0
-41 -29 -113 0
-42 -30 -114 0
-40 -31 -115 0
-41 -32 -116 0
-42 -33 -117 0
-40 -34 -118 0
-41 -35 -119 0
-42 -36 -120 0
-40 -37 -121 0
-41 -38 -122 0
-42 -39 -123 0
-40 -40 -124 0
-41 -41 -125 0
-42 -42 -126 0
-40 -43 -127 0
-41 -44 -128 0
-42 -45 -129 0
-43 -1 -91 0
-44 -2 -92 0
-45 -3 -93 0
-43 -4 -94 0
-44 -5 -95 0
-45 -6 -96 0
-43 -7 -97 0
-44 -8 -98 0
-45 -9 -99 0
-43 -10 -100 0
-44 -11 -101 0
-45 -12 -102 0
-43 -13 -103 0
-44 -14 -104 0
-45 -15 -105 0
-43 -16 -106 0
-44 -17 -107 0
-45 -18 -108 0
-43 -19 -109 0
-44 -20 -110 0
-45 -21 -111 0
-43 -22 -112 0
-44 -23 -113 0
-45 -24 -114 0
-43 -25 -115 0
-44 -26 -116 0
-45 -27 -117 0
-43 -28 -118 0
-44 -29 -119 0
-45 -30 -120 0
-43 -31 -121 0
-44 -32 -122 0
-45 -33 -123 0
-43 -34 -124 0
-44 -35 -125 0
-45 -36 -126 0
-43 -37 -127 0
-44 -38 -128 0
-45 -39 -129 0
-46 -1 -97 0
-47 -2 -98 0
-48 -3 -99 0
-46 -4 -100 0
-47 -5 -101 0
-48 -6 -102 0
-46 -7 -103 0
-47 -8 -104 0
-48 -9 -105 0
-46 -10 -106 0
-47 -11 -107 0
-48 -12 -108 0
-46 -13 -109 0
-47 -14 -110 0
-48 -15 -111 0
-46 -16 -112 0
-47 -17 -113 0
-48 -18 -114 0
-46 -19 -115 0
-47 -20 -116 0
-48 -21 -117 0
-46 -22 -118 0
-47 -23 -119 0
-48 -24 -120 0
-46 -25 -121 0
-47 -26 -122 0
-48 -27 -123 0
-46 -28 -124 0
-47 -29 -125 0
-48 -30 -126 0
-46 -31 -127 0
-47 -32 -128 0
-48 -33 -129 0
-49 -1 -103 0
-50 -2 -104 0
-51 -3 -105 0
-49 -4 -106 0
-50 -5 -107 0
-51 -6 -108 0
-49 -7 -109 0
-50 -8 -110 0
-51 -9 -111 0
-49 -10 -112 0
-50 -11 -113 0
-51 -12 -114 0
-49 -13 -115 0
-50 -14 -116 0
-51 -15 -117 0
-49 -16 -118 0
-50 -17 -119 0
-51 -18 -120 0
-49 -19 -121 0
-50 -20 -122 0
-51 -21 -123 0
-49 -22 -124 0
-50 -23 -125 0
-51 -24 -126 0
-49 -25 -127 0
-50 -26 -128 0
-51 -27 -129 0
-52 -1 -109 0
-53 -2 -110 0
-54 -3 -111 0
-52 -4 -112 0
-53 -5 -113 0
-54 -6 -114 0
-52 -7 -115 0
-53 -8 -116 0
-54 -9 -117 0
-52 -10 -118 0
-53 -11 -119 0
-54 -12 -120 0
-52 -13 -121 0
-53 -14 -122 0
-54 -15 -123 0
-52 -16 -124 0
-53 -17 -125 0
-54 -18 -126 0
-52 -19 -127 0
-53 -20 -128 0
-54 -21 -129 0
-55 -1 -115 0
-56 -2 -116 0
-57 -3 -117 0
-55 -4 -118 0
-56 -5 -119 0
-57 -6 -120 0
-55 -7 -121 0
-56 -8 -122 0
-57 -9 -123 0
-55 -10 -124 0
-56 -11 -125 0
-57 -12 -126 0
-55 -13 -127 0
-56 -14 -128 0
-57 -15 -129 0
-58 -1 -121 0
-59 -2 -122 0
-60 -3 -123 0
-58 -4 -124 0
-59 -5 -125 0
-60 -6 -126 0
-58 -7 -127 0
-59 -8 -128 0
-60 -9 -129 0
-61 -1 -127 0
-62 -2 -128 0
-63 -3 -129 0
